p tw 169 30421 2 
1 3 
1 4 
1 5 
1 6 
1 7 
1 8 
1 9 
1 10 
1 11 
1 12 
1 13 
1 14 
1 26 
1 27 
1 32 
1 40 
1 50 
1 53 
1 57 
1 66 
1 74 
1 79 
1 81 
1 92 
1 103 
1 105 
1 114 
1 118 
1 119 
1 131 
1 138 
1 144 
1 147 
1 157 
1 163 
2 3 
2 4 
2 5 
2 6 
2 7 
2 8 
2 9 
2 10 
2 11 
2 12 
2 13 
2 15 
2 25 
2 27 
2 28 
2 41 
2 43 
2 54 
2 61 
2 67 
2 75 
2 80 
2 89 
2 93 
2 99 
2 106 
2 109 
2 119 
2 124 
2 132 
2 133 
2 145 
2 149 
2 158 
2 169 
3 4 
3 5 
3 6 
3 7 
3 8 
3 9 
3 10 
3 11 
3 12 
3 13 
3 16 
3 18 
3 29 
3 36 
3 42 
3 52 
3 53 
3 55 
3 68 
3 76 
3 81 
3 85 
3 94 
3 100 
3 107 
3 110 
3 120 
3 129 
3 133 
3 134 
3 145 
3 146 
3 159 
3 164 
4 5 
4 6 
4 7 
4 8 
4 9 
4 10 
4 11 
4 12 
4 13 
4 17 
4 20 
4 30 
4 38 
4 43 
4 44 
4 54 
4 56 
4 66 
4 69 
4 82 
4 88 
4 94 
4 95 
4 108 
4 115 
4 121 
4 125 
4 134 
4 139 
4 147 
4 156 
4 160 
4 162 
5 6 
5 7 
5 8 
5 9 
5 10 
5 11 
5 12 
5 13 
5 18 
5 23 
5 28 
5 31 
5 44 
5 51 
5 55 
5 57 
5 70 
5 78 
5 83 
5 86 
5 96 
5 102 
5 108 
5 109 
5 122 
5 126 
5 135 
5 136 
5 148 
5 150 
5 157 
5 161 
6 7 
6 8 
6 9 
6 10 
6 11 
6 12 
6 13 
6 14 
6 19 
6 29 
6 32 
6 45 
6 49 
6 56 
6 58 
6 71 
6 73 
6 80 
6 84 
6 97 
6 98 
6 110 
6 113 
6 123 
6 130 
6 136 
6 141 
6 148 
6 149 
6 162 
6 168 
7 8 
7 9 
7 10 
7 11 
7 12 
7 13 
7 19 
7 20 
7 31 
7 33 
7 41 
7 46 
7 59 
7 64 
7 68 
7 72 
7 79 
7 85 
7 98 
7 104 
7 111 
7 112 
7 124 
7 128 
7 137 
7 140 
7 150 
7 152 
7 160 
7 163 
8 9 
8 10 
8 11 
8 12 
8 13 
8 17 
8 21 
8 34 
8 37 
8 46 
8 47 
8 60 
8 62 
8 67 
8 73 
8 83 
8 86 
8 92 
8 99 
8 112 
8 116 
8 123 
8 125 
8 138 
8 143 
8 146 
8 151 
8 164 
8 165 
9 10 
9 11 
9 12 
9 13 
9 15 
9 22 
9 35 
9 39 
9 47 
9 48 
9 58 
9 61 
9 72 
9 74 
9 87 
9 90 
9 95 
9 100 
9 107 
9 113 
9 122 
9 126 
9 131 
9 139 
9 152 
9 153 
9 165 
9 167 
10 11 
10 12 
10 13 
10 22 
10 23 
10 30 
10 36 
10 42 
10 49 
10 60 
10 62 
10 70 
10 75 
10 88 
10 91 
10 97 
10 101 
10 111 
10 114 
10 118 
10 127 
10 140 
10 142 
10 153 
10 154 
10 158 
10 166 
11 12 
11 13 
11 16 
11 24 
11 35 
11 37 
11 40 
11 50 
11 63 
11 65 
11 76 
11 77 
11 84 
11 89 
11 101 
11 102 
11 106 
11 115 
11 121 
11 128 
11 137 
11 141 
11 151 
11 154 
11 161 
11 167 
12 13 
12 24 
12 25 
12 34 
12 38 
12 48 
12 51 
12 59 
12 64 
12 71 
12 77 
12 82 
12 90 
12 96 
12 103 
12 116 
12 117 
12 120 
12 129 
12 132 
12 142 
12 144 
12 155 
12 166 
12 168 
13 21 
13 26 
13 33 
13 39 
13 45 
13 52 
13 63 
13 65 
13 69 
13 78 
13 87 
13 91 
13 93 
13 104 
13 105 
13 117 
13 127 
13 130 
13 135 
13 143 
13 155 
13 156 
13 159 
13 169 
14 15 
14 16 
14 17 
14 18 
14 19 
14 20 
14 21 
14 22 
14 23 
14 24 
14 25 
14 26 
14 27 
14 29 
14 40 
14 49 
14 53 
14 56 
14 66 
14 73 
14 79 
14 80 
14 92 
14 98 
14 105 
14 113 
14 118 
14 130 
14 131 
14 141 
14 144 
14 148 
14 157 
14 168 
15 16 
15 17 
15 18 
15 19 
15 20 
15 21 
15 22 
15 23 
15 24 
15 25 
15 26 
15 28 
15 39 
15 41 
15 47 
15 54 
15 58 
15 67 
15 72 
15 80 
15 90 
15 93 
15 95 
15 106 
15 107 
15 119 
15 122 
15 131 
15 132 
15 145 
15 153 
15 158 
15 167 
16 17 
16 18 
16 19 
16 20 
16 21 
16 22 
16 23 
16 24 
16 25 
16 26 
16 29 
16 35 
16 40 
16 42 
16 55 
16 65 
16 68 
16 77 
16 81 
16 84 
16 94 
16 101 
16 106 
16 107 
16 120 
16 121 
16 133 
16 137 
16 146 
16 151 
16 159 
16 161 
17 18 
17 19 
17 20 
17 21 
17 22 
17 23 
17 24 
17 25 
17 26 
17 30 
17 37 
17 43 
17 46 
17 56 
17 62 
17 67 
17 69 
17 82 
17 83 
17 92 
17 95 
17 108 
17 116 
17 121 
17 123 
17 134 
17 143 
17 146 
17 147 
17 160 
17 165 
18 19 
18 20 
18 21 
18 22 
18 23 
18 24 
18 25 
18 26 
18 31 
18 36 
18 44 
18 52 
18 53 
18 57 
18 70 
18 76 
18 83 
18 85 
18 96 
18 100 
18 109 
18 110 
18 122 
18 129 
18 134 
18 135 
18 145 
18 148 
18 161 
18 164 
19 20 
19 21 
19 22 
19 23 
19 24 
19 25 
19 26 
19 31 
19 32 
19 41 
19 45 
19 58 
19 64 
19 68 
19 71 
19 79 
19 84 
19 97 
19 104 
19 110 
19 112 
19 123 
19 128 
19 136 
19 140 
19 149 
19 152 
19 160 
19 162 
20 21 
20 22 
20 23 
20 24 
20 25 
20 26 
20 33 
20 38 
20 44 
20 46 
20 54 
20 59 
20 66 
20 72 
20 85 
20 88 
20 94 
20 98 
20 111 
20 115 
20 124 
20 125 
20 137 
20 139 
20 150 
20 156 
20 162 
20 163 
21 22 
21 23 
21 24 
21 25 
21 26 
21 33 
21 34 
21 45 
21 47 
21 60 
21 63 
21 69 
21 73 
21 86 
21 87 
21 93 
21 99 
21 105 
21 112 
21 125 
21 127 
21 135 
21 138 
21 151 
21 155 
21 159 
21 164 
22 23 
22 24 
22 25 
22 26 
22 30 
22 35 
22 42 
22 48 
22 60 
22 61 
22 70 
22 74 
22 87 
22 91 
22 97 
22 100 
22 111 
22 113 
22 118 
22 126 
22 139 
22 142 
22 152 
22 154 
22 158 
22 165 
23 24 
23 25 
23 26 
23 28 
23 36 
23 49 
23 51 
23 55 
23 62 
23 75 
23 78 
23 86 
23 88 
23 101 
23 102 
23 108 
23 114 
23 126 
23 127 
23 136 
23 140 
23 150 
23 153 
23 157 
23 166 
24 25 
24 26 
24 34 
24 37 
24 48 
24 50 
24 59 
24 63 
24 71 
24 76 
24 82 
24 89 
24 96 
24 102 
24 115 
24 117 
24 120 
24 128 
24 132 
24 141 
24 144 
24 154 
24 166 
24 167 
25 26 
25 27 
25 38 
25 43 
25 51 
25 61 
25 64 
25 75 
25 77 
25 89 
25 90 
25 99 
25 103 
25 109 
25 116 
25 124 
25 129 
25 133 
25 142 
25 149 
25 155 
25 168 
25 169 
26 32 
26 39 
26 50 
26 52 
26 57 
26 65 
26 74 
26 78 
26 81 
26 91 
26 103 
26 104 
26 114 
26 117 
26 119 
26 130 
26 138 
26 143 
26 147 
26 156 
26 163 
26 169 
27 28 
27 29 
27 30 
27 31 
27 32 
27 33 
27 34 
27 35 
27 36 
27 37 
27 38 
27 39 
27 40 
27 43 
27 53 
27 61 
27 66 
27 75 
27 79 
27 89 
27 92 
27 99 
27 105 
27 109 
27 118 
27 124 
27 131 
27 133 
27 144 
27 149 
27 157 
27 169 
28 29 
28 30 
28 31 
28 32 
28 33 
28 34 
28 35 
28 36 
28 37 
28 38 
28 39 
28 41 
28 51 
28 54 
28 55 
28 67 
28 78 
28 80 
28 86 
28 93 
28 102 
28 106 
28 108 
28 119 
28 126 
28 132 
28 136 
28 145 
28 150 
28 157 
28 158 
29 30 
29 31 
29 32 
29 33 
29 34 
29 35 
29 36 
29 37 
29 38 
29 39 
29 42 
29 49 
29 55 
29 56 
29 68 
29 73 
29 80 
29 81 
29 94 
29 98 
29 107 
29 113 
29 120 
29 130 
29 133 
29 141 
29 146 
29 148 
29 159 
29 168 
30 31 
30 32 
30 33 
30 34 
30 35 
30 36 
30 37 
30 38 
30 39 
30 42 
30 43 
30 56 
30 60 
30 69 
30 70 
30 82 
30 91 
30 95 
30 97 
30 108 
30 111 
30 118 
30 121 
30 134 
30 142 
30 147 
30 154 
30 158 
30 160 
31 32 
31 33 
31 34 
31 35 
31 36 
31 37 
31 38 
31 39 
31 41 
31 44 
31 57 
31 64 
31 68 
31 70 
31 79 
31 83 
31 96 
31 104 
31 109 
31 112 
31 122 
31 128 
31 135 
31 140 
31 148 
31 152 
31 160 
31 161 
32 33 
32 34 
32 35 
32 36 
32 37 
32 38 
32 39 
32 45 
32 50 
32 57 
32 58 
32 71 
32 74 
32 81 
32 84 
32 97 
32 103 
32 110 
32 114 
32 119 
32 123 
32 136 
32 138 
32 147 
32 149 
32 162 
32 163 
33 34 
33 35 
33 36 
33 37 
33 38 
33 39 
33 45 
33 46 
33 59 
33 63 
33 69 
33 72 
33 85 
33 87 
33 93 
33 98 
33 105 
33 111 
33 124 
33 127 
33 135 
33 137 
33 150 
33 155 
33 159 
33 163 
34 35 
34 36 
34 37 
34 38 
34 39 
34 47 
34 48 
34 59 
34 60 
34 71 
34 73 
34 82 
34 86 
34 96 
34 99 
34 112 
34 117 
34 120 
34 125 
34 132 
34 138 
34 144 
34 151 
34 164 
34 166 
35 36 
35 37 
35 38 
35 39 
35 40 
35 48 
35 61 
35 65 
35 74 
35 77 
35 84 
35 87 
35 100 
35 101 
35 106 
35 113 
35 121 
35 126 
35 137 
35 139 
35 151 
35 152 
35 161 
35 165 
36 37 
36 38 
36 39 
36 49 
36 52 
36 53 
36 62 
36 75 
36 76 
36 85 
36 88 
36 100 
36 101 
36 110 
36 114 
36 127 
36 129 
36 134 
36 140 
36 145 
36 153 
36 164 
36 166 
37 38 
37 39 
37 46 
37 50 
37 62 
37 63 
37 67 
37 76 
37 83 
37 89 
37 92 
37 102 
37 115 
37 116 
37 123 
37 128 
37 141 
37 143 
37 146 
37 154 
37 165 
37 167 
38 39 
38 44 
38 51 
38 54 
38 64 
38 66 
38 77 
38 88 
38 90 
38 94 
38 103 
38 115 
38 116 
38 125 
38 129 
38 139 
38 142 
38 155 
38 156 
38 162 
38 168 
39 47 
39 52 
39 58 
39 65 
39 72 
39 78 
39 90 
39 91 
39 95 
39 104 
39 107 
39 117 
39 122 
39 130 
39 131 
39 143 
39 153 
39 156 
39 167 
39 169 
40 41 
40 42 
40 43 
40 44 
40 45 
40 46 
40 47 
40 48 
40 49 
40 50 
40 51 
40 52 
40 53 
40 65 
40 66 
40 77 
40 79 
40 84 
40 92 
40 101 
40 105 
40 106 
40 118 
40 121 
40 131 
40 137 
40 144 
40 151 
40 157 
40 161 
41 42 
41 43 
41 44 
41 45 
41 46 
41 47 
41 48 
41 49 
41 50 
41 51 
41 52 
41 54 
41 64 
41 67 
41 68 
41 79 
41 80 
41 93 
41 104 
41 106 
41 112 
41 119 
41 128 
41 132 
41 140 
41 145 
41 152 
41 158 
41 160 
42 43 
42 44 
42 45 
42 46 
42 47 
42 48 
42 49 
42 50 
42 51 
42 52 
42 55 
42 60 
42 68 
42 70 
42 81 
42 91 
42 94 
42 97 
42 107 
42 111 
42 118 
42 120 
42 133 
42 142 
42 146 
42 154 
42 158 
42 159 
43 44 
43 45 
43 46 
43 47 
43 48 
43 49 
43 50 
43 51 
43 52 
43 56 
43 61 
43 69 
43 75 
43 82 
43 89 
43 95 
43 99 
43 108 
43 109 
43 121 
43 124 
43 133 
43 134 
43 147 
43 149 
43 160 
43 169 
44 45 
44 46 
44 47 
44 48 
44 49 
44 50 
44 51 
44 52 
44 54 
44 57 
44 66 
44 70 
44 83 
44 88 
44 94 
44 96 
44 109 
44 115 
44 122 
44 125 
44 135 
44 139 
44 148 
44 156 
44 161 
44 162 
45 46 
45 47 
45 48 
45 49 
45 50 
45 51 
45 52 
45 58 
45 63 
45 69 
45 71 
45 84 
45 87 
45 93 
45 97 
45 105 
45 110 
45 123 
45 127 
45 135 
45 136 
45 149 
45 155 
45 159 
45 162 
46 47 
46 48 
46 49 
46 50 
46 51 
46 52 
46 59 
46 62 
46 67 
46 72 
46 83 
46 85 
46 92 
46 98 
46 111 
46 116 
46 123 
46 124 
46 137 
46 143 
46 146 
46 150 
46 163 
46 165 
47 48 
47 49 
47 50 
47 51 
47 52 
47 58 
47 60 
47 72 
47 73 
47 86 
47 90 
47 95 
47 99 
47 107 
47 112 
47 122 
47 125 
47 131 
47 138 
47 151 
47 153 
47 164 
47 167 
48 49 
48 50 
48 51 
48 52 
48 59 
48 61 
48 71 
48 74 
48 82 
48 87 
48 96 
48 100 
48 113 
48 117 
48 120 
48 126 
48 132 
48 139 
48 144 
48 152 
48 165 
48 166 
49 50 
49 51 
49 52 
49 56 
49 62 
49 73 
49 75 
49 80 
49 88 
49 98 
49 101 
49 113 
49 114 
49 127 
49 130 
49 140 
49 141 
49 148 
49 153 
49 166 
49 168 
50 51 
50 52 
50 57 
50 63 
50 74 
50 76 
50 81 
50 89 
50 102 
50 103 
50 114 
50 115 
50 119 
50 128 
50 138 
50 141 
50 147 
50 154 
50 163 
50 167 
51 52 
51 55 
51 64 
51 77 
51 78 
51 86 
51 90 
51 102 
51 103 
51 108 
51 116 
51 126 
51 129 
51 136 
51 142 
51 150 
51 155 
51 157 
51 168 
52 53 
52 65 
52 76 
52 78 
52 85 
52 91 
52 100 
52 104 
52 110 
52 117 
52 129 
52 130 
52 134 
52 143 
52 145 
52 156 
52 164 
52 169 
53 54 
53 55 
53 56 
53 57 
53 58 
53 59 
53 60 
53 61 
53 62 
53 63 
53 64 
53 65 
53 66 
53 76 
53 79 
53 85 
53 92 
53 100 
53 105 
53 110 
53 118 
53 129 
53 131 
53 134 
53 144 
53 145 
53 157 
53 164 
54 55 
54 56 
54 57 
54 58 
54 59 
54 60 
54 61 
54 62 
54 63 
54 64 
54 65 
54 66 
54 67 
54 80 
54 88 
54 93 
54 94 
54 106 
54 115 
54 119 
54 125 
54 132 
54 139 
54 145 
54 156 
54 158 
54 162 
55 56 
55 57 
55 58 
55 59 
55 60 
55 61 
55 62 
55 63 
55 64 
55 65 
55 68 
55 78 
55 81 
55 86 
55 94 
55 102 
55 107 
55 108 
55 120 
55 126 
55 133 
55 136 
55 146 
55 150 
55 157 
55 159 
56 57 
56 58 
56 59 
56 60 
56 61 
56 62 
56 63 
56 64 
56 65 
56 69 
56 73 
56 80 
56 82 
56 95 
56 98 
56 108 
56 113 
56 121 
56 130 
56 134 
56 141 
56 147 
56 148 
56 160 
56 168 
57 58 
57 59 
57 60 
57 61 
57 62 
57 63 
57 64 
57 65 
57 70 
57 74 
57 81 
57 83 
57 96 
57 103 
57 109 
57 114 
57 119 
57 122 
57 135 
57 138 
57 147 
57 148 
57 161 
57 163 
58 59 
58 60 
58 61 
58 62 
58 63 
58 64 
58 65 
58 71 
58 72 
58 84 
58 90 
58 95 
58 97 
58 107 
58 110 
58 122 
58 123 
58 131 
58 136 
58 149 
58 153 
58 162 
58 167 
59 60 
59 61 
59 62 
59 63 
59 64 
59 65 
59 71 
59 72 
59 82 
59 85 
59 96 
59 98 
59 111 
59 117 
59 120 
59 124 
59 132 
59 137 
59 144 
59 150 
59 163 
59 166 
60 61 
60 62 
60 63 
60 64 
60 65 
60 70 
60 73 
60 86 
60 91 
60 97 
60 99 
60 111 
60 112 
60 118 
60 125 
60 138 
60 142 
60 151 
60 154 
60 158 
60 164 
61 62 
61 63 
61 64 
61 65 
61 74 
61 75 
61 87 
61 89 
61 99 
61 100 
61 109 
61 113 
61 124 
61 126 
61 133 
61 139 
61 149 
61 152 
61 165 
61 169 
62 63 
62 64 
62 65 
62 67 
62 75 
62 83 
62 88 
62 92 
62 101 
62 114 
62 116 
62 123 
62 127 
62 140 
62 143 
62 146 
62 153 
62 165 
62 166 
63 64 
63 65 
63 69 
63 76 
63 87 
63 89 
63 93 
63 102 
63 105 
63 115 
63 127 
63 128 
63 135 
63 141 
63 154 
63 155 
63 159 
63 167 
64 65 
64 68 
64 77 
64 79 
64 90 
64 103 
64 104 
64 112 
64 116 
64 128 
64 129 
64 140 
64 142 
64 152 
64 155 
64 160 
64 168 
65 77 
65 78 
65 84 
65 91 
65 101 
65 104 
65 106 
65 117 
65 121 
65 130 
65 137 
65 143 
65 151 
65 156 
65 161 
65 169 
66 67 
66 68 
66 69 
66 70 
66 71 
66 72 
66 73 
66 74 
66 75 
66 76 
66 77 
66 78 
66 79 
66 88 
66 92 
66 94 
66 105 
66 115 
66 118 
66 125 
66 131 
66 139 
66 144 
66 156 
66 157 
66 162 
67 68 
67 69 
67 70 
67 71 
67 72 
67 73 
67 74 
67 75 
67 76 
67 77 
67 78 
67 80 
67 83 
67 92 
67 93 
67 106 
67 116 
67 119 
67 123 
67 132 
67 143 
67 145 
67 146 
67 158 
67 165 
68 69 
68 70 
68 71 
68 72 
68 73 
68 74 
68 75 
68 76 
68 77 
68 78 
68 79 
68 81 
68 94 
68 104 
68 107 
68 112 
68 120 
68 128 
68 133 
68 140 
68 146 
68 152 
68 159 
68 160 
69 70 
69 71 
69 72 
69 73 
69 74 
69 75 
69 76 
69 77 
69 78 
69 82 
69 87 
69 93 
69 95 
69 105 
69 108 
69 121 
69 127 
69 134 
69 135 
69 147 
69 155 
69 159 
69 160 
70 71 
70 72 
70 73 
70 74 
70 75 
70 76 
70 77 
70 78 
70 83 
70 91 
70 96 
70 97 
70 109 
70 111 
70 118 
70 122 
70 135 
70 142 
70 148 
70 154 
70 158 
70 161 
71 72 
71 73 
71 74 
71 75 
71 76 
71 77 
71 78 
71 82 
71 84 
71 96 
71 97 
71 110 
71 117 
71 120 
71 123 
71 132 
71 136 
71 144 
71 149 
71 162 
71 166 
72 73 
72 74 
72 75 
72 76 
72 77 
72 78 
72 85 
72 90 
72 95 
72 98 
72 107 
72 111 
72 122 
72 124 
72 131 
72 137 
72 150 
72 153 
72 163 
72 167 
73 74 
73 75 
73 76 
73 77 
73 78 
73 80 
73 86 
73 98 
73 99 
73 112 
73 113 
73 125 
73 130 
73 138 
73 141 
73 148 
73 151 
73 164 
73 168 
74 75 
74 76 
74 77 
74 78 
74 81 
74 87 
74 100 
74 103 
74 113 
74 114 
74 119 
74 126 
74 138 
74 139 
74 147 
74 152 
74 163 
74 165 
75 76 
75 77 
75 78 
75 88 
75 89 
75 99 
75 101 
75 109 
75 114 
75 124 
75 127 
75 133 
75 140 
75 149 
75 153 
75 166 
75 169 
76 77 
76 78 
76 85 
76 89 
76 100 
76 102 
76 110 
76 115 
76 128 
76 129 
76 134 
76 141 
76 145 
76 154 
76 164 
76 167 
77 78 
77 84 
77 90 
77 101 
77 103 
77 106 
77 116 
77 121 
77 129 
77 137 
77 142 
77 151 
77 155 
77 161 
77 168 
78 86 
78 91 
78 102 
78 104 
78 108 
78 117 
78 126 
78 130 
78 136 
78 143 
78 150 
78 156 
78 157 
78 169 
79 80 
79 81 
79 82 
79 83 
79 84 
79 85 
79 86 
79 87 
79 88 
79 89 
79 90 
79 91 
79 92 
79 104 
79 105 
79 112 
79 118 
79 128 
79 131 
79 140 
79 144 
79 152 
79 157 
79 160 
80 81 
80 82 
80 83 
80 84 
80 85 
80 86 
80 87 
80 88 
80 89 
80 90 
80 91 
80 93 
80 98 
80 106 
80 113 
80 119 
80 130 
80 132 
80 141 
80 145 
80 148 
80 158 
80 168 
81 82 
81 83 
81 84 
81 85 
81 86 
81 87 
81 88 
81 89 
81 90 
81 91 
81 94 
81 103 
81 107 
81 114 
81 119 
81 120 
81 133 
81 138 
81 146 
81 147 
81 159 
81 163 
82 83 
82 84 
82 85 
82 86 
82 87 
82 88 
82 89 
82 90 
82 91 
82 95 
82 96 
82 108 
82 117 
82 120 
82 121 
82 132 
82 134 
82 144 
82 147 
82 160 
82 166 
83 84 
83 85 
83 86 
83 87 
83 88 
83 89 
83 90 
83 91 
83 92 
83 96 
83 109 
83 116 
83 122 
83 123 
83 135 
83 143 
83 146 
83 148 
83 161 
83 165 
84 85 
84 86 
84 87 
84 88 
84 89 
84 90 
84 91 
84 97 
84 101 
84 106 
84 110 
84 121 
84 123 
84 136 
84 137 
84 149 
84 151 
84 161 
84 162 
85 86 
85 87 
85 88 
85 89 
85 90 
85 91 
85 98 
85 100 
85 110 
85 111 
85 124 
85 129 
85 134 
85 137 
85 145 
85 150 
85 163 
85 164 
86 87 
86 88 
86 89 
86 90 
86 91 
86 99 
86 102 
86 108 
86 112 
86 125 
86 126 
86 136 
86 138 
86 150 
86 151 
86 157 
86 164 
87 88 
87 89 
87 90 
87 91 
87 93 
87 100 
87 105 
87 113 
87 126 
87 127 
87 135 
87 139 
87 152 
87 155 
87 159 
87 165 
88 89 
88 90 
88 91 
88 94 
88 101 
88 114 
88 115 
88 125 
88 127 
88 139 
88 140 
88 153 
88 156 
88 162 
88 166 
89 90 
89 91 
89 99 
89 102 
89 109 
89 115 
89 124 
89 128 
89 133 
89 141 
89 149 
89 154 
89 167 
89 169 
90 91 
90 95 
90 103 
90 107 
90 116 
90 122 
90 129 
90 131 
90 142 
90 153 
90 155 
90 167 
90 168 
91 97 
91 104 
91 111 
91 117 
91 118 
91 130 
91 142 
91 143 
91 154 
91 156 
91 158 
91 169 
92 93 
92 94 
92 95 
92 96 
92 97 
92 98 
92 99 
92 100 
92 101 
92 102 
92 103 
92 104 
92 105 
92 116 
92 118 
92 123 
92 131 
92 143 
92 144 
92 146 
92 157 
92 165 
93 94 
93 95 
93 96 
93 97 
93 98 
93 99 
93 100 
93 101 
93 102 
93 103 
93 104 
93 105 
93 106 
93 119 
93 127 
93 132 
93 135 
93 145 
93 155 
93 158 
93 159 
94 95 
94 96 
94 97 
94 98 
94 99 
94 100 
94 101 
94 102 
94 103 
94 104 
94 107 
94 115 
94 120 
94 125 
94 133 
94 139 
94 146 
94 156 
94 159 
94 162 
95 96 
95 97 
95 98 
95 99 
95 100 
95 101 
95 102 
95 103 
95 104 
95 107 
95 108 
95 121 
95 122 
95 131 
95 134 
95 147 
95 153 
95 160 
95 167 
96 97 
96 98 
96 99 
96 100 
96 101 
96 102 
96 103 
96 104 
96 109 
96 117 
96 120 
96 122 
96 132 
96 135 
96 144 
96 148 
96 161 
96 166 
97 98 
97 99 
97 100 
97 101 
97 102 
97 103 
97 104 
97 110 
97 111 
97 118 
97 123 
97 136 
97 142 
97 149 
97 154 
97 158 
97 162 
98 99 
98 100 
98 101 
98 102 
98 103 
98 104 
98 111 
98 113 
98 124 
98 130 
98 137 
98 141 
98 148 
98 150 
98 163 
98 168 
99 100 
99 101 
99 102 
99 103 
99 104 
99 109 
99 112 
99 124 
99 125 
99 133 
99 138 
99 149 
99 151 
99 164 
99 169 
100 101 
100 102 
100 103 
100 104 
100 110 
100 113 
100 126 
100 129 
100 134 
100 139 
100 145 
100 152 
100 164 
100 165 
101 102 
101 103 
101 104 
101 106 
101 114 
101 121 
101 127 
101 137 
101 140 
101 151 
101 153 
101 161 
101 166 
102 103 
102 104 
102 108 
102 115 
102 126 
102 128 
102 136 
102 141 
102 150 
102 154 
102 157 
102 167 
103 104 
103 114 
103 116 
103 119 
103 129 
103 138 
103 142 
103 147 
103 155 
103 163 
103 168 
104 112 
104 117 
104 128 
104 130 
104 140 
104 143 
104 152 
104 156 
104 160 
104 169 
105 106 
105 107 
105 108 
105 109 
105 110 
105 111 
105 112 
105 113 
105 114 
105 115 
105 116 
105 117 
105 118 
105 127 
105 131 
105 135 
105 144 
105 155 
105 157 
105 159 
106 107 
106 108 
106 109 
106 110 
106 111 
106 112 
106 113 
106 114 
106 115 
106 116 
106 117 
106 119 
106 121 
106 132 
106 137 
106 145 
106 151 
106 158 
106 161 
107 108 
107 109 
107 110 
107 111 
107 112 
107 113 
107 114 
107 115 
107 116 
107 117 
107 120 
107 122 
107 131 
107 133 
107 146 
107 153 
107 159 
107 167 
108 109 
108 110 
108 111 
108 112 
108 113 
108 114 
108 115 
108 116 
108 117 
108 121 
108 126 
108 134 
108 136 
108 147 
108 150 
108 157 
108 160 
109 110 
109 111 
109 112 
109 113 
109 114 
109 115 
109 116 
109 117 
109 122 
109 124 
109 133 
109 135 
109 148 
109 149 
109 161 
109 169 
110 111 
110 112 
110 113 
110 114 
110 115 
110 116 
110 117 
110 123 
110 129 
110 134 
110 136 
110 145 
110 149 
110 162 
110 164 
111 112 
111 113 
111 114 
111 115 
111 116 
111 117 
111 118 
111 124 
111 137 
111 142 
111 150 
111 154 
111 158 
111 163 
112 113 
112 114 
112 115 
112 116 
112 117 
112 125 
112 128 
112 138 
112 140 
112 151 
112 152 
112 160 
112 164 
113 114 
113 115 
113 116 
113 117 
113 126 
113 130 
113 139 
113 141 
113 148 
113 152 
113 165 
113 168 
114 115 
114 116 
114 117 
114 119 
114 127 
114 138 
114 140 
114 147 
114 153 
114 163 
114 166 
115 116 
115 117 
115 125 
115 128 
115 139 
115 141 
115 154 
115 156 
115 162 
115 167 
116 117 
116 123 
116 129 
116 142 
116 143 
116 146 
116 155 
116 165 
116 168 
117 120 
117 130 
117 132 
117 143 
117 144 
117 156 
117 166 
117 169 
118 119 
118 120 
118 121 
118 122 
118 123 
118 124 
118 125 
118 126 
118 127 
118 128 
118 129 
118 130 
118 131 
118 142 
118 144 
118 154 
118 157 
118 158 
119 120 
119 121 
119 122 
119 123 
119 124 
119 125 
119 126 
119 127 
119 128 
119 129 
119 130 
119 132 
119 138 
119 145 
119 147 
119 158 
119 163 
120 121 
120 122 
120 123 
120 124 
120 125 
120 126 
120 127 
120 128 
120 129 
120 130 
120 132 
120 133 
120 144 
120 146 
120 159 
120 166 
121 122 
121 123 
121 124 
121 125 
121 126 
121 127 
121 128 
121 129 
121 130 
121 134 
121 137 
121 147 
121 151 
121 160 
121 161 
122 123 
122 124 
122 125 
122 126 
122 127 
122 128 
122 129 
122 130 
122 131 
122 135 
122 148 
122 153 
122 161 
122 167 
123 124 
123 125 
123 126 
123 127 
123 128 
123 129 
123 130 
123 136 
123 143 
123 146 
123 149 
123 162 
123 165 
124 125 
124 126 
124 127 
124 128 
124 129 
124 130 
124 133 
124 137 
124 149 
124 150 
124 163 
124 169 
125 126 
125 127 
125 128 
125 129 
125 130 
125 138 
125 139 
125 151 
125 156 
125 162 
125 164 
126 127 
126 128 
126 129 
126 130 
126 136 
126 139 
126 150 
126 152 
126 157 
126 165 
127 128 
127 129 
127 130 
127 135 
127 140 
127 153 
127 155 
127 159 
127 166 
128 129 
128 130 
128 140 
128 141 
128 152 
128 154 
128 160 
128 167 
129 130 
129 134 
129 142 
129 145 
129 155 
129 164 
129 168 
130 141 
130 143 
130 148 
130 156 
130 168 
130 169 
131 132 
131 133 
131 134 
131 135 
131 136 
131 137 
131 138 
131 139 
131 140 
131 141 
131 142 
131 143 
131 144 
131 153 
131 157 
131 167 
132 133 
132 134 
132 135 
132 136 
132 137 
132 138 
132 139 
132 140 
132 141 
132 142 
132 143 
132 144 
132 145 
132 158 
132 166 
133 134 
133 135 
133 136 
133 137 
133 138 
133 139 
133 140 
133 141 
133 142 
133 143 
133 146 
133 149 
133 159 
133 169 
134 135 
134 136 
134 137 
134 138 
134 139 
134 140 
134 141 
134 142 
134 143 
134 145 
134 147 
134 160 
134 164 
135 136 
135 137 
135 138 
135 139 
135 140 
135 141 
135 142 
135 143 
135 148 
135 155 
135 159 
135 161 
136 137 
136 138 
136 139 
136 140 
136 141 
136 142 
136 143 
136 149 
136 150 
136 157 
136 162 
137 138 
137 139 
137 140 
137 141 
137 142 
137 143 
137 150 
137 151 
137 161 
137 163 
138 139 
138 140 
138 141 
138 142 
138 143 
138 147 
138 151 
138 163 
138 164 
139 140 
139 141 
139 142 
139 143 
139 152 
139 156 
139 162 
139 165 
140 141 
140 142 
140 143 
140 152 
140 153 
140 160 
140 166 
141 142 
141 143 
141 148 
141 154 
141 167 
141 168 
142 143 
142 154 
142 155 
142 158 
142 168 
143 146 
143 156 
143 165 
143 169 
144 145 
144 146 
144 147 
144 148 
144 149 
144 150 
144 151 
144 152 
144 153 
144 154 
144 155 
144 156 
144 157 
144 166 
145 146 
145 147 
145 148 
145 149 
145 150 
145 151 
145 152 
145 153 
145 154 
145 155 
145 156 
145 158 
145 164 
146 147 
146 148 
146 149 
146 150 
146 151 
146 152 
146 153 
146 154 
146 155 
146 156 
146 159 
146 165 
147 148 
147 149 
147 150 
147 151 
147 152 
147 153 
147 154 
147 155 
147 156 
147 160 
147 163 
148 149 
148 150 
148 151 
148 152 
148 153 
148 154 
148 155 
148 156 
148 161 
148 168 
149 150 
149 151 
149 152 
149 153 
149 154 
149 155 
149 156 
149 162 
149 169 
150 151 
150 152 
150 153 
150 154 
150 155 
150 156 
150 157 
150 163 
151 152 
151 153 
151 154 
151 155 
151 156 
151 161 
151 164 
152 153 
152 154 
152 155 
152 156 
152 160 
152 165 
153 154 
153 155 
153 156 
153 166 
153 167 
154 155 
154 156 
154 158 
154 167 
155 156 
155 159 
155 168 
156 162 
156 169 
157 158 
157 159 
157 160 
157 161 
157 162 
157 163 
157 164 
157 165 
157 166 
157 167 
157 168 
157 169 
158 159 
158 160 
158 161 
158 162 
158 163 
158 164 
158 165 
158 166 
158 167 
158 168 
158 169 
159 160 
159 161 
159 162 
159 163 
159 164 
159 165 
159 166 
159 167 
159 168 
159 169 
160 161 
160 162 
160 163 
160 164 
160 165 
160 166 
160 167 
160 168 
160 169 
161 162 
161 163 
161 164 
161 165 
161 166 
161 167 
161 168 
161 169 
162 163 
162 164 
162 165 
162 166 
162 167 
162 168 
162 169 
163 164 
163 165 
163 166 
163 167 
163 168 
163 169 
164 165 
164 166 
164 167 
164 168 
164 169 
165 166 
165 167 
165 168 
165 169 
166 167 
166 168 
166 169 
167 168 
167 169 
168 169 
